NAME          
ROWS
 N  OBJ
 L  c1
COLUMNS
    MARKER    'MARKER'                 'INTORG'
    x[1]      c1        377
    x[1]      OBJ       -203
    x[2]      c1        385
    x[2]      OBJ       -443
    x[3]      c1        114
    x[3]      OBJ       -787
    x[4]      c1        324
    x[4]      OBJ       -382
    x[5]      c1        34
    x[5]      OBJ       -313
    x[6]      c1        658
    x[6]      OBJ       -786
    x[7]      c1        220
    x[7]      OBJ       -826
    x[8]      c1        766
    x[8]      OBJ       -935
    x[9]      c1        288
    x[9]      OBJ       -798
    x[10]     c1        850
    x[10]     OBJ       -929
RHS
    rhs       c1        2008
RANGES
BOUNDS
 LO bounds    x[1]      0
 PL bounds    x[1]
 LO bounds    x[2]      0
 PL bounds    x[2]
 LO bounds    x[3]      0
 PL bounds    x[3]
 LO bounds    x[4]      0
 PL bounds    x[4]
 LO bounds    x[5]      0
 PL bounds    x[5]
 LO bounds    x[6]      0
 PL bounds    x[6]
 LO bounds    x[7]      0
 PL bounds    x[7]
 LO bounds    x[8]      0
 PL bounds    x[8]
 LO bounds    x[9]      0
 PL bounds    x[9]
 LO bounds    x[10]     0
 PL bounds    x[10]
ENDATA
